
Gurobi 12.0.1 (win64, C++) logging started Tue Apr 22 09:15:14 2025

Set parameter Username
Set parameter LicenseID to value 2618661
Academic license - for non-commercial use only - expires 2026-02-05
Set parameter Threads to value 8
Set parameter LazyConstraints to value 1
Set parameter PreCrush to value 1
Set parameter Seed to value 10
Set parameter Cuts to value -1
Set parameter TimeLimit to value 28800
Set parameter NumericFocus to value 0
Set parameter SolutionLimit to value 10000
Gurobi Optimizer version 12.0.1 build v12.0.1rc0 (win64 - Windows Server 2022.0 (20348.2))

CPU model: AMD EPYC 7513 32-Core Processor, instruction set [SSE2|AVX|AVX2]
Thread count: 18 physical cores, 18 logical processors, using up to 8 threads

Non-default parameters:
SolutionLimit  10000
TimeLimit  28800
PreCrush  1
Seed  10
Threads  8
LazyConstraints  1

Optimize a model with 137 rows, 256 columns and 720 nonzeros
Model fingerprint: 0xa6423194
Variable types: 0 continuous, 256 integer (256 binary)
Coefficient statistics:
  Matrix range     [1e+00, 1e+00]
  Objective range  [8e+00, 6e+01]
  Bounds range     [1e+00, 1e+00]
  RHS range        [1e+00, 5e+00]

User MIP start produced solution with objective 350.582 (0.00s)
Loaded user MIP start with objective 350.582

Presolve removed 2 rows and 18 columns
Presolve time: 0.00s
Presolved: 135 rows, 238 columns, 669 nonzeros
Variable types: 0 continuous, 238 integer (238 binary)

Root relaxation: objective 2.862678e+02, 57 iterations, 0.00 seconds (0.00 work units)

    Nodes    |    Current Node    |     Objective Bounds      |     Work
 Expl Unexpl |  Obj  Depth IntInf | Incumbent    BestBd   Gap | It/Node Time

     0     0  286.26777    0    -  350.58163  286.26777  18.3%     -    0s
     0     0  294.19409    0    -  350.58163  294.19409  16.1%     -    0s
     0     0  295.17078    0   24  350.58163  295.17078  15.8%     -    0s
     0     0  299.27837    0    -  350.58163  299.27837  14.6%     -    0s
     0     0  304.10360    0   30  350.58163  304.10360  13.3%     -    0s
     0     0  310.05025    0   18  350.58163  310.05025  11.6%     -    0s
     0     0  311.81317    0   29  350.58163  311.81317  11.1%     -    0s
     0     0  318.63387    0   41  350.58163  318.63387  9.11%     -    0s
     0     0  318.95563    0   10  350.58163  318.95563  9.02%     -    0s
     0     0  318.95563    0    6  350.58163  318.95563  9.02%     -    0s
     0     2  318.95563    0    6  350.58163  318.95563  9.02%     -    0s
*   69    43               6     334.9638862  325.38480  2.86%  32.0    1s

Cutting planes:
  Gomory: 4
  GUB cover: 1
  Lazy constraints: 1466

Explored 322 nodes (5776 simplex iterations) in 2.85 seconds (0.37 work units)
Thread count was 8 (of 18 available processors)

Solution count 2: 334.964 350.582 

Optimal solution found (tolerance 1.00e-04)
Best objective 3.349638862376e+02, best bound 3.349638862376e+02, gap 0.0000%

User-callback calls 967, time in user-callback 2.38 sec
### START EXACT APPROACH ###
ProblemVariant: 6
### START PREPROCESSING ###
## Start infeasible path procedure ## 
Deleted arcs: 2
Infeasible tail paths: 0
Infeasible 2-node combinations: 1
Deleted arcs: 2
Infeasible tail paths: 0
Infeasible 2-node combinations: 1
## Start start solution procedure ##
Start solution with 5 Vehicles and total costs 350.582 in 0.001942 s.
### END PREPROCESSING ###
Route 0 0-1-3-2-0 : weight util 0.963636 | volume util 0.287511 | 
Route 1 0-6-11-5-0 : weight util 1.000000 | volume util 0.366000 | 
Route 2 0-8-7-0 : weight util 0.763636 | volume util 0.217111 | 
Route 3 0-9-10-15-12-0 : weight util 1.000000 | volume util 0.379378 | 
Route 4 0-14-13-4-0 : weight util 0.963636 | volume util 0.411000 | 
